
Gurobi 7.5.1 (mac64, Python) logging started Tue Nov  7 12:35:39 2017

Optimize a model with 10000 rows, 10 columns and 98565 nonzeros
Coefficient statistics:
  Matrix range     [1e+00, 1e+02]
  Objective range  [0e+00, 0e+00]
  Bounds range     [0e+00, 0e+00]
  RHS range        [6e+00, 2e+04]
Optimize a model with 1000 rows, 10 columns and 9866 nonzeros
Coefficient statistics:
  Matrix range     [1e+00, 1e+02]
  Objective range  [0e+00, 0e+00]
  Bounds range     [0e+00, 0e+00]
  RHS range        [2e+01, 2e+04]
Presolve time: 0.03s
Presolved: 10 rows, 1000 columns, 9866 nonzeros

Iteration    Objective       Primal Inf.    Dual Inf.      Time
       0    0.0000000e+00   0.000000e+00   1.006877e+05      0s
     102   -0.0000000e+00   0.000000e+00   0.000000e+00      0s

Solved in 102 iterations and 0.05 seconds
Optimal objective -0.000000000e+00
Optimize a model with 1000 rows, 10 columns and 9866 nonzeros
Coefficient statistics:
  Matrix range     [1e+00, 1e+02]
  Objective range  [0e+00, 0e+00]
  Bounds range     [0e+00, 0e+00]
  RHS range        [2e+01, 2e+04]
Presolve time: 0.02s
Presolved: 10 rows, 1000 columns, 9866 nonzeros

Iteration    Objective       Primal Inf.    Dual Inf.      Time
       0    0.0000000e+00   0.000000e+00   1.006877e+05      0s
     102   -0.0000000e+00   0.000000e+00   0.000000e+00      0s

Solved in 102 iterations and 0.04 seconds
Optimal objective -0.000000000e+00
